c File: data_files/evolved_graphs/g5188.col
c
c Auto generated graph
c
p edge 100 198
e 1 38
e 1 61
e 1 62
e 1 84
e 1 88
e 2 5
e 2 36
e 2 37
e 2 61
e 2 88
e 3 10
e 3 14
e 3 36
e 3 43
e 3 46
e 3 55
e 4 5
e 4 53
e 4 64
e 4 91
e 5 37
e 5 47
e 6 41
e 6 85
e 7 27
e 7 50
e 7 68
e 7 81
e 7 99
e 8 12
e 8 23
e 8 60
e 8 69
e 8 87
e 9 37
e 9 60
e 9 70
e 9 92
e 10 40
e 10 89
e 10 93
e 10 100
e 11 64
e 11 80
e 11 99
e 12 73
e 12 77
e 12 82
e 12 91
e 13 28
e 13 32
e 13 65
e 13 74
e 14 43
e 14 50
e 14 65
e 14 83
e 14 90
e 15 25
e 15 34
e 15 74
e 16 17
e 16 47
e 16 64
e 16 86
e 17 26
e 17 29
e 17 63
e 17 76
e 17 88
e 17 97
e 18 31
e 18 45
e 18 61
e 18 65
e 19 23
e 19 58
e 19 89
e 20 30
e 20 53
e 20 71
e 20 73
e 20 100
e 21 24
e 21 30
e 21 40
e 21 55
e 21 67
e 22 55
e 22 77
e 22 99
e 23 51
e 24 46
e 24 65
e 25 59
e 26 53
e 26 54
e 26 61
e 26 62
e 27 28
e 27 59
e 27 61
e 27 64
e 27 68
e 28 58
e 28 63
e 29 48
e 29 94
e 30 32
e 30 97
e 31 33
e 32 34
e 32 96
e 32 98
e 34 51
e 34 64
e 35 61
e 35 66
e 36 38
e 36 72
e 36 91
e 37 63
e 37 89
e 37 96
e 38 63
e 38 86
e 38 98
e 39 60
e 39 68
e 39 90
e 39 94
e 39 95
e 40 52
e 40 66
e 40 88
e 40 95
e 41 97
e 42 48
e 42 51
e 42 55
e 42 57
e 43 52
e 43 57
e 43 64
e 45 52
e 45 75
e 46 48
e 46 74
e 47 56
e 47 95
e 48 51
e 49 57
e 49 77
e 49 96
e 50 54
e 50 99
e 52 54
e 56 98
e 57 78
e 57 87
e 58 78
e 58 99
e 59 65
e 59 69
e 60 87
e 62 67
e 62 70
e 63 69
e 63 95
e 66 70
e 66 74
e 67 72
e 67 89
e 68 76
e 69 72
e 69 75
e 70 91
e 71 73
e 71 76
e 71 80
e 72 91
e 72 92
e 73 74
e 73 91
e 75 88
e 75 90
e 77 83
e 78 83
e 79 84
e 79 95
e 80 90
e 81 82
e 81 97
e 81 98
e 85 94
e 87 93
e 92 93
e 93 97
